Crypto/instances/samples/hf_n23/hf_n23_cnf03.sol
c DPLL-like Solver for max-min SAT
f file hf_n23_cnf03.cnf
p cnf 23 92
s max  92 -14 -15 -16 13 7 6 5 -8 17 -3 4 -1 -22 12 10 -19 -11 9 2 -23 -21 -20 -18
s min  76 14 15 -16 -13 7 -6 5 8 -17 -3 4 1 -22 12 -10 -19 11 -9 -2 -23 -21 20 -18